
Gurobi 10.0.1 (linux64) logging started Sun Nov 26 16:13:47 2023

Set parameter LogFile to value "ArtificialInstance/ExperimentV2/S3T4K3/AdRo/gurobiDoRo59.txt"
Gurobi Optimizer version 10.0.1 build v10.0.1rc0 (linux64)

CPU model: AMD EPYC 7H12 64-Core Processor, instruction set [SSE2|AVX|AVX2]
Thread count: 128 physical cores, 128 logical processors, using up to 32 threads

Academic license 656792 - for non-commercial use only - registered to b.___@student.vu.nl
Optimize a model with 17363 rows, 16345 columns and 63533 nonzeros
Model fingerprint: 0xcabe68fd
Variable types: 1 continuous, 16344 integer (16344 binary)
Coefficient statistics:
  Matrix range     [1e+00, 4e+01]
  Objective range  [1e+00, 2e+01]
  Bounds range     [1e+00, 1e+00]
  RHS range        [1e+00, 1e+00]
Presolve removed 8435 rows and 7985 columns
Presolve time: 0.20s
Presolved: 8928 rows, 8360 columns, 32532 nonzeros
Variable types: 1 continuous, 8359 integer (8359 binary)
Found heuristic solution: objective 106.9100351

Root relaxation: objective 9.991455e+01, 2442 iterations, 0.13 seconds (0.09 work units)

    Nodes    |    Current Node    |     Objective Bounds      |     Work
 Expl Unexpl |  Obj  Depth IntInf | Incumbent    BestBd   Gap | It/Node Time

H    0     0                      99.9145469   55.04568  44.9%     -    0s
     0     0          -    0        99.91455   99.91455  0.00%     -    0s

Explored 1 nodes (4120 simplex iterations) in 0.46 seconds (0.33 work units)
Thread count was 32 (of 128 available processors)

Solution count 2: 99.9145 106.91 

Optimal solution found (tolerance 1.00e-04)
Best objective 9.991454693638e+01, best bound 9.991454693638e+01, gap 0.0000%
